p cnf 75 425
1 2 3 6 7 8 11 12 13 0
1 2 4 6 7 9 11 12 14 0
1 2 5 6 7 10 11 12 15 0
1 3 4 6 8 9 11 13 14 0
1 3 5 6 8 10 11 13 15 0
1 4 5 6 9 10 11 14 15 0
2 3 4 7 8 9 12 13 14 0
2 3 5 7 8 10 12 13 15 0
2 4 5 7 9 10 12 14 15 0
3 4 5 8 9 10 13 14 15 0
1 2 3 6 7 8 16 17 18 0
1 2 4 6 7 9 16 17 19 0
1 2 5 6 7 10 16 17 20 0
1 3 4 6 8 9 16 18 19 0
1 3 5 6 8 10 16 18 20 0
1 4 5 6 9 10 16 19 20 0
2 3 4 7 8 9 17 18 19 0
2 3 5 7 8 10 17 18 20 0
2 4 5 7 9 10 17 19 20 0
3 4 5 8 9 10 18 19 20 0
1 2 3 6 7 8 21 22 23 0
1 2 4 6 7 9 21 22 24 0
1 2 5 6 7 10 21 22 25 0
1 3 4 6 8 9 21 23 24 0
1 3 5 6 8 10 21 23 25 0
1 4 5 6 9 10 21 24 25 0
2 3 4 7 8 9 22 23 24 0
2 3 5 7 8 10 22 23 25 0
2 4 5 7 9 10 22 24 25 0
3 4 5 8 9 10 23 24 25 0
1 2 3 11 12 13 16 17 18 0
1 2 4 11 12 14 16 17 19 0
1 2 5 11 12 15 16 17 20 0
1 3 4 11 13 14 16 18 19 0
1 3 5 11 13 15 16 18 20 0
1 4 5 11 14 15 16 19 20 0
2 3 4 12 13 14 17 18 19 0
2 3 5 12 13 15 17 18 20 0
2 4 5 12 14 15 17 19 20 0
3 4 5 13 14 15 18 19 20 0
1 2 3 11 12 13 21 22 23 0
1 2 4 11 12 14 21 22 24 0
1 2 5 11 12 15 21 22 25 0
1 3 4 11 13 14 21 23 24 0
1 3 5 11 13 15 21 23 25 0
1 4 5 11 14 15 21 24 25 0
2 3 4 12 13 14 22 23 24 0
2 3 5 12 13 15 22 23 25 0
2 4 5 12 14 15 22 24 25 0
3 4 5 13 14 15 23 24 25 0
1 2 3 16 17 18 21 22 23 0
1 2 4 16 17 19 21 22 24 0
1 2 5 16 17 20 21 22 25 0
1 3 4 16 18 19 21 23 24 0
1 3 5 16 18 20 21 23 25 0
1 4 5 16 19 20 21 24 25 0
2 3 4 17 18 19 22 23 24 0
2 3 5 17 18 20 22 23 25 0
2 4 5 17 19 20 22 24 25 0
3 4 5 18 19 20 23 24 25 0
6 7 8 11 12 13 16 17 18 0
6 7 9 11 12 14 16 17 19 0
6 7 10 11 12 15 16 17 20 0
6 8 9 11 13 14 16 18 19 0
6 8 10 11 13 15 16 18 20 0
6 9 10 11 14 15 16 19 20 0
7 8 9 12 13 14 17 18 19 0
7 8 10 12 13 15 17 18 20 0
7 9 10 12 14 15 17 19 20 0
8 9 10 13 14 15 18 19 20 0
6 7 8 11 12 13 21 22 23 0
6 7 9 11 12 14 21 22 24 0
6 7 10 11 12 15 21 22 25 0
6 8 9 11 13 14 21 23 24 0
6 8 10 11 13 15 21 23 25 0
6 9 10 11 14 15 21 24 25 0
7 8 9 12 13 14 22 23 24 0
7 8 10 12 13 15 22 23 25 0
7 9 10 12 14 15 22 24 25 0
8 9 10 13 14 15 23 24 25 0
6 7 8 16 17 18 21 22 23 0
6 7 9 16 17 19 21 22 24 0
6 7 10 16 17 20 21 22 25 0
6 8 9 16 18 19 21 23 24 0
6 8 10 16 18 20 21 23 25 0
6 9 10 16 19 20 21 24 25 0
7 8 9 17 18 19 22 23 24 0
7 8 10 17 18 20 22 23 25 0
7 9 10 17 19 20 22 24 25 0
8 9 10 18 19 20 23 24 25 0
11 12 13 16 17 18 21 22 23 0
11 12 14 16 17 19 21 22 24 0
11 12 15 16 17 20 21 22 25 0
11 13 14 16 18 19 21 23 24 0
11 13 15 16 18 20 21 23 25 0
11 14 15 16 19 20 21 24 25 0
12 13 14 17 18 19 22 23 24 0
12 13 15 17 18 20 22 23 25 0
12 14 15 17 19 20 22 24 25 0
13 14 15 18 19 20 23 24 25 0
26 27 28 31 32 33 36 37 38 0
26 27 29 31 32 34 36 37 39 0
26 27 30 31 32 35 36 37 40 0
26 28 29 31 33 34 36 38 39 0
26 28 30 31 33 35 36 38 40 0
26 29 30 31 34 35 36 39 40 0
27 28 29 32 33 34 37 38 39 0
27 28 30 32 33 35 37 38 40 0
27 29 30 32 34 35 37 39 40 0
28 29 30 33 34 35 38 39 40 0
26 27 28 31 32 33 41 42 43 0
26 27 29 31 32 34 41 42 44 0
26 27 30 31 32 35 41 42 45 0
26 28 29 31 33 34 41 43 44 0
26 28 30 31 33 35 41 43 45 0
26 29 30 31 34 35 41 44 45 0
27 28 29 32 33 34 42 43 44 0
27 28 30 32 33 35 42 43 45 0
27 29 30 32 34 35 42 44 45 0
28 29 30 33 34 35 43 44 45 0
26 27 28 31 32 33 46 47 48 0
26 27 29 31 32 34 46 47 49 0
26 27 30 31 32 35 46 47 50 0
26 28 29 31 33 34 46 48 49 0
26 28 30 31 33 35 46 48 50 0
26 29 30 31 34 35 46 49 50 0
27 28 29 32 33 34 47 48 49 0
27 28 30 32 33 35 47 48 50 0
27 29 30 32 34 35 47 49 50 0
28 29 30 33 34 35 48 49 50 0
26 27 28 36 37 38 41 42 43 0
26 27 29 36 37 39 41 42 44 0
26 27 30 36 37 40 41 42 45 0
26 28 29 36 38 39 41 43 44 0
26 28 30 36 38 40 41 43 45 0
26 29 30 36 39 40 41 44 45 0
27 28 29 37 38 39 42 43 44 0
27 28 30 37 38 40 42 43 45 0
27 29 30 37 39 40 42 44 45 0
28 29 30 38 39 40 43 44 45 0
26 27 28 36 37 38 46 47 48 0
26 27 29 36 37 39 46 47 49 0
26 27 30 36 37 40 46 47 50 0
26 28 29 36 38 39 46 48 49 0
26 28 30 36 38 40 46 48 50 0
26 29 30 36 39 40 46 49 50 0
27 28 29 37 38 39 47 48 49 0
27 28 30 37 38 40 47 48 50 0
27 29 30 37 39 40 47 49 50 0
28 29 30 38 39 40 48 49 50 0
26 27 28 41 42 43 46 47 48 0
26 27 29 41 42 44 46 47 49 0
26 27 30 41 42 45 46 47 50 0
26 28 29 41 43 44 46 48 49 0
26 28 30 41 43 45 46 48 50 0
26 29 30 41 44 45 46 49 50 0
27 28 29 42 43 44 47 48 49 0
27 28 30 42 43 45 47 48 50 0
27 29 30 42 44 45 47 49 50 0
28 29 30 43 44 45 48 49 50 0
31 32 33 36 37 38 41 42 43 0
31 32 34 36 37 39 41 42 44 0
31 32 35 36 37 40 41 42 45 0
31 33 34 36 38 39 41 43 44 0
31 33 35 36 38 40 41 43 45 0
31 34 35 36 39 40 41 44 45 0
32 33 34 37 38 39 42 43 44 0
32 33 35 37 38 40 42 43 45 0
32 34 35 37 39 40 42 44 45 0
33 34 35 38 39 40 43 44 45 0
31 32 33 36 37 38 46 47 48 0
31 32 34 36 37 39 46 47 49 0
31 32 35 36 37 40 46 47 50 0
31 33 34 36 38 39 46 48 49 0
31 33 35 36 38 40 46 48 50 0
31 34 35 36 39 40 46 49 50 0
32 33 34 37 38 39 47 48 49 0
32 33 35 37 38 40 47 48 50 0
32 34 35 37 39 40 47 49 50 0
33 34 35 38 39 40 48 49 50 0
31 32 33 41 42 43 46 47 48 0
31 32 34 41 42 44 46 47 49 0
31 32 35 41 42 45 46 47 50 0
31 33 34 41 43 44 46 48 49 0
31 33 35 41 43 45 46 48 50 0
31 34 35 41 44 45 46 49 50 0
32 33 34 42 43 44 47 48 49 0
32 33 35 42 43 45 47 48 50 0
32 34 35 42 44 45 47 49 50 0
33 34 35 43 44 45 48 49 50 0
36 37 38 41 42 43 46 47 48 0
36 37 39 41 42 44 46 47 49 0
36 37 40 41 42 45 46 47 50 0
36 38 39 41 43 44 46 48 49 0
36 38 40 41 43 45 46 48 50 0
36 39 40 41 44 45 46 49 50 0
37 38 39 42 43 44 47 48 49 0
37 38 40 42 43 45 47 48 50 0
37 39 40 42 44 45 47 49 50 0
38 39 40 43 44 45 48 49 50 0
51 52 53 56 57 58 61 62 63 0
51 52 54 56 57 59 61 62 64 0
51 52 55 56 57 60 61 62 65 0
51 53 54 56 58 59 61 63 64 0
51 53 55 56 58 60 61 63 65 0
51 54 55 56 59 60 61 64 65 0
52 53 54 57 58 59 62 63 64 0
52 53 55 57 58 60 62 63 65 0
52 54 55 57 59 60 62 64 65 0
53 54 55 58 59 60 63 64 65 0
51 52 53 56 57 58 66 67 68 0
51 52 54 56 57 59 66 67 69 0
51 52 55 56 57 60 66 67 70 0
51 53 54 56 58 59 66 68 69 0
51 53 55 56 58 60 66 68 70 0
51 54 55 56 59 60 66 69 70 0
52 53 54 57 58 59 67 68 69 0
52 53 55 57 58 60 67 68 70 0
52 54 55 57 59 60 67 69 70 0
53 54 55 58 59 60 68 69 70 0
51 52 53 56 57 58 71 72 73 0
51 52 54 56 57 59 71 72 74 0
51 52 55 56 57 60 71 72 75 0
51 53 54 56 58 59 71 73 74 0
51 53 55 56 58 60 71 73 75 0
51 54 55 56 59 60 71 74 75 0
52 53 54 57 58 59 72 73 74 0
52 53 55 57 58 60 72 73 75 0
52 54 55 57 59 60 72 74 75 0
53 54 55 58 59 60 73 74 75 0
51 52 53 61 62 63 66 67 68 0
51 52 54 61 62 64 66 67 69 0
51 52 55 61 62 65 66 67 70 0
51 53 54 61 63 64 66 68 69 0
51 53 55 61 63 65 66 68 70 0
51 54 55 61 64 65 66 69 70 0
52 53 54 62 63 64 67 68 69 0
52 53 55 62 63 65 67 68 70 0
52 54 55 62 64 65 67 69 70 0
53 54 55 63 64 65 68 69 70 0
51 52 53 61 62 63 71 72 73 0
51 52 54 61 62 64 71 72 74 0
51 52 55 61 62 65 71 72 75 0
51 53 54 61 63 64 71 73 74 0
51 53 55 61 63 65 71 73 75 0
51 54 55 61 64 65 71 74 75 0
52 53 54 62 63 64 72 73 74 0
52 53 55 62 63 65 72 73 75 0
52 54 55 62 64 65 72 74 75 0
53 54 55 63 64 65 73 74 75 0
51 52 53 66 67 68 71 72 73 0
51 52 54 66 67 69 71 72 74 0
51 52 55 66 67 70 71 72 75 0
51 53 54 66 68 69 71 73 74 0
51 53 55 66 68 70 71 73 75 0
51 54 55 66 69 70 71 74 75 0
52 53 54 67 68 69 72 73 74 0
52 53 55 67 68 70 72 73 75 0
52 54 55 67 69 70 72 74 75 0
53 54 55 68 69 70 73 74 75 0
56 57 58 61 62 63 66 67 68 0
56 57 59 61 62 64 66 67 69 0
56 57 60 61 62 65 66 67 70 0
56 58 59 61 63 64 66 68 69 0
56 58 60 61 63 65 66 68 70 0
56 59 60 61 64 65 66 69 70 0
57 58 59 62 63 64 67 68 69 0
57 58 60 62 63 65 67 68 70 0
57 59 60 62 64 65 67 69 70 0
58 59 60 63 64 65 68 69 70 0
56 57 58 61 62 63 71 72 73 0
56 57 59 61 62 64 71 72 74 0
56 57 60 61 62 65 71 72 75 0
56 58 59 61 63 64 71 73 74 0
56 58 60 61 63 65 71 73 75 0
56 59 60 61 64 65 71 74 75 0
57 58 59 62 63 64 72 73 74 0
57 58 60 62 63 65 72 73 75 0
57 59 60 62 64 65 72 74 75 0
58 59 60 63 64 65 73 74 75 0
56 57 58 66 67 68 71 72 73 0
56 57 59 66 67 69 71 72 74 0
56 57 60 66 67 70 71 72 75 0
56 58 59 66 68 69 71 73 74 0
56 58 60 66 68 70 71 73 75 0
56 59 60 66 69 70 71 74 75 0
57 58 59 67 68 69 72 73 74 0
57 58 60 67 68 70 72 73 75 0
57 59 60 67 69 70 72 74 75 0
58 59 60 68 69 70 73 74 75 0
61 62 63 66 67 68 71 72 73 0
61 62 64 66 67 69 71 72 74 0
61 62 65 66 67 70 71 72 75 0
61 63 64 66 68 69 71 73 74 0
61 63 65 66 68 70 71 73 75 0
61 64 65 66 69 70 71 74 75 0
62 63 64 67 68 69 72 73 74 0
62 63 65 67 68 70 72 73 75 0
62 64 65 67 69 70 72 74 75 0
63 64 65 68 69 70 73 74 75 0
-1 -26 -51 0
-1 -27 -52 0
-1 -28 -53 0
-1 -29 -54 0
-1 -30 -55 0
-2 -26 -56 0
-2 -27 -57 0
-2 -28 -58 0
-2 -29 -59 0
-2 -30 -60 0
-3 -26 -61 0
-3 -27 -62 0
-3 -28 -63 0
-3 -29 -64 0
-3 -30 -65 0
-4 -26 -66 0
-4 -27 -67 0
-4 -28 -68 0
-4 -29 -69 0
-4 -30 -70 0
-5 -26 -71 0
-5 -27 -72 0
-5 -28 -73 0
-5 -29 -74 0
-5 -30 -75 0
-6 -31 -51 0
-6 -32 -52 0
-6 -33 -53 0
-6 -34 -54 0
-6 -35 -55 0
-7 -31 -56 0
-7 -32 -57 0
-7 -33 -58 0
-7 -34 -59 0
-7 -35 -60 0
-8 -31 -61 0
-8 -32 -62 0
-8 -33 -63 0
-8 -34 -64 0
-8 -35 -65 0
-9 -31 -66 0
-9 -32 -67 0
-9 -33 -68 0
-9 -34 -69 0
-9 -35 -70 0
-10 -31 -71 0
-10 -32 -72 0
-10 -33 -73 0
-10 -34 -74 0
-10 -35 -75 0
-11 -36 -51 0
-11 -37 -52 0
-11 -38 -53 0
-11 -39 -54 0
-11 -40 -55 0
-12 -36 -56 0
-12 -37 -57 0
-12 -38 -58 0
-12 -39 -59 0
-12 -40 -60 0
-13 -36 -61 0
-13 -37 -62 0
-13 -38 -63 0
-13 -39 -64 0
-13 -40 -65 0
-14 -36 -66 0
-14 -37 -67 0
-14 -38 -68 0
-14 -39 -69 0
-14 -40 -70 0
-15 -36 -71 0
-15 -37 -72 0
-15 -38 -73 0
-15 -39 -74 0
-15 -40 -75 0
-16 -41 -51 0
-16 -42 -52 0
-16 -43 -53 0
-16 -44 -54 0
-16 -45 -55 0
-17 -41 -56 0
-17 -42 -57 0
-17 -43 -58 0
-17 -44 -59 0
-17 -45 -60 0
-18 -41 -61 0
-18 -42 -62 0
-18 -43 -63 0
-18 -44 -64 0
-18 -45 -65 0
-19 -41 -66 0
-19 -42 -67 0
-19 -43 -68 0
-19 -44 -69 0
-19 -45 -70 0
-20 -41 -71 0
-20 -42 -72 0
-20 -43 -73 0
-20 -44 -74 0
-20 -45 -75 0
-21 -46 -51 0
-21 -47 -52 0
-21 -48 -53 0
-21 -49 -54 0
-21 -50 -55 0
-22 -46 -56 0
-22 -47 -57 0
-22 -48 -58 0
-22 -49 -59 0
-22 -50 -60 0
-23 -46 -61 0
-23 -47 -62 0
-23 -48 -63 0
-23 -49 -64 0
-23 -50 -65 0
-24 -46 -66 0
-24 -47 -67 0
-24 -48 -68 0
-24 -49 -69 0
-24 -50 -70 0
-25 -46 -71 0
-25 -47 -72 0
-25 -48 -73 0
-25 -49 -74 0
-25 -50 -75 0
